
  32    4
  10   10   10   10

   0   0   0   0   0  11 2 3 4 5 6 7 12 28 29 30 31 
   6   1   1   1   0   7 27 19 17 16 15 13 8 
   4   5   0   3   1   7 26 25 23 22 15 13 11 
   2   1   0  10   3   6 23 21 20 18 14 10 
   5   5   3   0   5   4 24 22 21 14 
   6   2   0   5   3   3 20 16 9 
   9   0   4   3   4   3 16 15 13 
   4   0   4   2   3   2 18 14 
   1   4   0   7   3   1 13 
   4   5   0   3   5   1 13 
   4   5   0   4   8   1 17 
  10   2   4   0   6   1 19 
   8   0   6   3   6   1 32
   7   0   6   2   3   1 32
   8   1   0   4   3   1 32
   2   5   0   4   7   1 32
   2   7   0   5   5   1 32
   9   0   2   4   4   1 32
   5   5   6   0   3   1 32
   6   5   8   0   2   1 32
   1   0   4   6   2   1 32
   5   6   3   0   6   1 32
   3   5   0   4   7   1 32
   2   3   4   2   0   1 32
   1   6   2   2   0   1 32
  10   4   3   0   3   1 32
   6   3   3   0   3   1 32
   3   5   0   4   3   1 32
   2   3   0   6   3   1 32
   2   2   2   0   3   1 32
   2   6   7   0   4   1 32
   0   0   0   0   0   0 
